; benchmark generated from python API
(set-info :status unknown)
(declare-datatypes ((RealState 0)) (((RMk1 (rval1 Real)) (RMk2 (rval2 Real)))))
 (declare-fun x1 () Real)
(assert
 (exists ((?y1_st RealState) (val!107 Real) )(let (($x2758 (forall ((?y2 Real) )(! (forall ((?y3 Real) )(! (let (($x4929 (> (+ (+ (* 61.0 ?y3) (* 96.0 ?y2)) (* 20.0 x1)) 36.0)))
 (let ((?x6469 (* 2.0 x1)))
 (let (($x7437 (= (+ (+ (* (- 78.0) ?y3) (* (- 13.0) (rval2 ?y1_st))) ?x6469) 0.0)))
 (let ((?x7649 (- 54.0)))
 (let ((?x6168 (* (- 11.0) x1)))
 (let (($x1938 (not (= (+ (+ (* (- 32.0) ?y2) (* 95.0 (rval2 ?y1_st))) ?x6168) ?x7649))))
 (let ((?x1798 (- 91.0)))
 (let ((?x1210 (* (- 3.0) x1)))
 (let ((?x1922 (+ (* (- 58.0) ?y3) (* 98.0 ?y2))))
 (or (or (<= (+ (+ ?x1922 (* (- 15.0) (rval2 ?y1_st))) ?x1210) ?x1798) $x1938) (or $x7437 $x4929))))))))))) :qid k!17))
  :qid k!17))
 ))
 (let (($x4397 (forall ((?y3 Real) )(! (and (< (* 57.0 ?y3) 4.0) (< (+ (* (- 12.0) ?y3) (* 67.0 x1)) (- 2.0))) :qid k!17))
 ))
 (let (($x2551 (exists ((?y2 Real) )(! (exists ((?y3 Real) )(! (let (($x715 (= (+ (+ (* 3.0 ?y3) (* 7.0 (rval2 ?y1_st))) (* 26.0 x1)) 93.0)))
 (let ((?x8139 (- 62.0)))
 (let ((?x4329 (+ (* (- 80.0) ?y3) (* (- 94.0) ?y2))))
 (or (>= (+ ?x4329 (* 53.0 (rval2 ?y1_st))) ?x8139) (not $x715))))) :qid k!17))
  :qid k!17))
 ))
 (let (($x427 (not (= ?y1_st (RMk1 val!107)))))
 (and $x427 (and (or $x2551 $x4397) $x2758)))))))
 )
(check-sat)
